proyfinal/src/viki/013/experimentInOfficeAgust.take6.output/14017d3d-eaeb-4ec6-8f7a-7f0bbe0f5c27.als.dat
{'cnf.clauses': '118081',
 'cnf.totvars': '69608',
 'conflict literals': '2',
 'conflicts': '3',
 'decisions': '3328',
 'memused.mb': '15.05',
 'outcome': 'UNSAT',
 'propagations': '24015',
 'restarts': '1',
 'solver.msecs': 28,
 'task.msecs': 98}
