proyfinal/src/viki/013/experimentInOfficeAgust.take6.output/14017d3d-eaeb-4ec6-8f7a-7f0bbe0f5c27.als.out
Reading from standard input... Use '--help' for help.
============================[ Problem Statistics ]=============================
|                                                                             |
|  Number of variables:         69608                                         |
|  Number of clauses:          118081                                         |
|  Parse time:                   0.02 s                                       |
|                                                                             |
============================[ Search Statistics ]==============================
| Conflicts |          ORIGINAL         |          LEARNT          | Progress |
|           |    Vars  Clauses Literals |    Limit  Clauses Lit/Cl |          |
===============================================================================
===============================================================================
restarts              : 1
conflicts             : 3              (105 /sec)
decisions             : 3328           (0.00 % random) (116842 /sec)
propagations          : 24015          (843135 /sec)
conflict literals     : 2              (0.00 % deleted)
Memory used           : 15.05 MB
CPU time              : 0.028483 s

UNSATISFIABLE
